NAME          BLANK   
ROWS
 N  OBJROW
 L  R0000000
 G  R0000001
 G  R0000002
 G  R0000003
 G  R0000004
 G  R0000005
 G  R0000006
 G  R0000007
 G  R0000008
 L  R0000009
 L  R0000010
 L  R0000011
 L  R0000012
 L  R0000013
 L  R0000014
 L  R0000015
 L  R0000016
 G  R0000017
 G  R0000018
 G  R0000019
 G  R0000020
 G  R0000021
 G  R0000022
 G  R0000023
 G  R0000024
 G  R0000025
 G  R0000026
 G  R0000027
 G  R0000028
 G  R0000029
 G  R0000030
 G  R0000031
 G  R0000032
 G  R0000033
 G  R0000034
 G  R0000035
 G  R0000036
 G  R0000037
 G  R0000038
 L  R0000039
 L  R0000040
 L  R0000041
 L  R0000042
 L  R0000043
 L  R0000044
 L  R0000045
 L  R0000046
 L  R0000047
 L  R0000048
 L  R0000049
 L  R0000050
 L  R0000051
 L  R0000052
 L  R0000053
 L  R0000054
 L  R0000055
 L  R0000056
 L  R0000057
 L  R0000058
 L  R0000059
 L  R0000060
 L  R0000061
 L  R0000062
 L  R0000063
 L  R0000064
 L  R0000065
 L  R0000066
 L  R0000067
 L  R0000068
 L  R0000069
 L  R0000070
 L  R0000071
 L  R0000072
 L  R0000073
 L  R0000074
 L  R0000075
 L  R0000076
 L  R0000077
 L  R0000078
 L  R0000079
 L  R0000080
 L  R0000081
 L  R0000082
 L  R0000083
 L  R0000084
 L  R0000085
 L  R0000086
 L  R0000087
 L  R0000088
 L  R0000089
 L  R0000090
 L  R0000091
 L  R0000092
 L  R0000093
 L  R0000094
 L  R0000095
 L  R0000096
 L  R0000097
 L  R0000098
 L  R0000099
 L  R0000100
 L  R0000101
 L  R0000102
 L  R0000103
 L  R0000104
 L  R0000105
 L  R0000106
 L  R0000107
 L  R0000108
 L  R0000109
 L  R0000110
 L  R0000111
 L  R0000112
 L  R0000113
 L  R0000114
 L  R0000115
 L  R0000116
 L  R0000117
 L  R0000118
 L  R0000119
 L  R0000120
 L  R0000121
 L  R0000122
 L  R0000123
 L  R0000124
 L  R0000125
 L  R0000126
 L  R0000127
 L  R0000128
 L  R0000129
 L  R0000130
 L  R0000131
 L  R0000132
 L  R0000133
 L  R0000134
 L  R0000135
 L  R0000136
 L  R0000137
 L  R0000138
 L  R0000139
 L  R0000140
 L  R0000141
 L  R0000142
 L  R0000143
 L  R0000144
 L  R0000145
 L  R0000146
 L  R0000147
 L  R0000148
 L  R0000149
 L  R0000150
 L  R0000151
 L  R0000152
 L  R0000153
 L  R0000154
 L  R0000155
 L  R0000156
 L  R0000157
 L  R0000158
 L  R0000159
 L  R0000160
 L  R0000161
 L  R0000162
 L  R0000163
 L  R0000164
 L  R0000165
 L  R0000166
 L  R0000167
 L  R0000168
 L  R0000169
 L  R0000170
 L  R0000171
 L  R0000172
 L  R0000173
 L  R0000174
 L  R0000175
 L  R0000176
 L  R0000177
 L  R0000178
 L  R0000179
 L  R0000180
 L  R0000181
 L  R0000182
 L  R0000183
 L  R0000184
 L  R0000185
 L  R0000186
 L  R0000187
 L  R0000188
 L  R0000189
 L  R0000190
 L  R0000191
 L  R0000192
 L  R0000193
 L  R0000194
 L  R0000195
 L  R0000196
 L  R0000197
 L  R0000198
 L  R0000199
 L  R0000200
 L  R0000201
 L  R0000202
 L  R0000203
 L  R0000204
 L  R0000205
 L  R0000206
 L  R0000207
 L  R0000208
 L  R0000209
 L  R0000210
 L  R0000211
 L  R0000212
 L  R0000213
COLUMNS
    C0000000  OBJROW    2200.          R0000000   -5075.     
    C0000000  R0000008   -750.         R0000193   -5075.     
    C0000000  R0000194   -5075.        R0000195   -5075.     
    C0000000  R0000196   -5075.        R0000197   -5075.     
    C0000000  R0000198   -5075.        R0000199   -5075.     
    C0000000  R0000200   -5075.        R0000201   -5075.     
    C0000000  R0000202   -5075.        R0000203   -5075.     
    C0000000  R0000204   -5075.        R0000205   -5075.     
    C0000000  R0000206   -5075.        R0000207   -5075.     
    C0000000  R0000208   -5075.        R0000209   -5075.     
    C0000000  R0000210   -5075.        R0000211   -5075.     
    C0000000  R0000212   -5075.        R0000213   -5075.     
    C0000001  OBJROW    27.            R0000000  1.          
    C0000001  R0000008  1.             R0000016  1.          
    C0000001  R0000038  1.          
    C0000002  OBJROW    57.            R0000008  1.          
    C0000002  R0000016  1.             R0000037  1.          
    C0000002  R0000213  1.          
    C0000003  OBJROW    22.            R0000008  1.          
    C0000003  R0000016  1.             R0000036  1.          
    C0000003  R0000212  1.          
    C0000004  OBJROW    57.            R0000008  1.          
    C0000004  R0000016  1.             R0000035  1.          
    C0000004  R0000211  1.          
    C0000005  OBJROW    52.            R0000008  1.          
    C0000005  R0000016  1.             R0000034  1.          
    C0000005  R0000210  1.          
    C0000006  OBJROW    37.            R0000008  1.          
    C0000006  R0000016  1.             R0000033  1.          
    C0000006  R0000209  1.          
    C0000007  OBJROW    37.            R0000008  1.          
    C0000007  R0000016  1.             R0000032  1.          
    C0000007  R0000208  1.          
    C0000008  OBJROW    37.            R0000008  1.          
    C0000008  R0000016  1.             R0000031  1.          
    C0000008  R0000207  1.          
    C0000009  OBJROW    47.            R0000008  1.          
    C0000009  R0000016  1.             R0000030  1.          
    C0000009  R0000206  1.          
    C0000010  OBJROW    37.            R0000008  1.          
    C0000010  R0000016  1.             R0000029  1.          
    C0000010  R0000205  1.          
    C0000011  OBJROW    52.            R0000008  1.          
    C0000011  R0000016  1.             R0000028  1.          
    C0000011  R0000204  1.          
    C0000012  OBJROW    52.            R0000008  1.          
    C0000012  R0000016  1.             R0000027  1.          
    C0000012  R0000203  1.          
    C0000013  OBJROW    52.            R0000008  1.          
    C0000013  R0000016  1.             R0000026  1.          
    C0000013  R0000202  1.          
    C0000014  OBJROW    27.            R0000008  1.          
    C0000014  R0000016  1.             R0000025  1.          
    C0000014  R0000201  1.          
    C0000015  OBJROW    47.            R0000008  1.          
    C0000015  R0000016  1.             R0000024  1.          
    C0000015  R0000200  1.          
    C0000016  OBJROW    47.            R0000008  1.          
    C0000016  R0000016  1.             R0000023  1.          
    C0000016  R0000199  1.          
    C0000017  OBJROW    67.            R0000008  1.          
    C0000017  R0000016  1.             R0000022  1.          
    C0000017  R0000198  1.          
    C0000018  OBJROW    37.            R0000008  1.          
    C0000018  R0000016  1.             R0000021  1.          
    C0000018  R0000197  1.          
    C0000019  OBJROW    42.            R0000008  1.          
    C0000019  R0000016  1.             R0000020  1.          
    C0000019  R0000196  1.          
    C0000020  OBJROW    62.            R0000008  1.          
    C0000020  R0000016  1.             R0000019  1.          
    C0000020  R0000195  1.          
    C0000021  OBJROW    42.            R0000008  1.          
    C0000021  R0000016  1.             R0000018  1.          
    C0000021  R0000194  1.          
    C0000022  OBJROW    57.            R0000008  1.          
    C0000022  R0000016  1.             R0000017  1.          
    C0000022  R0000193  1.          
    C0000023  OBJROW    2000.          R0000007   -850.      
    C0000023  R0000171   -5075.        R0000172   -5075.     
    C0000023  R0000173   -5075.        R0000174   -5075.     
    C0000023  R0000175   -5075.        R0000176   -5075.     
    C0000023  R0000177   -5075.        R0000178   -5075.     
    C0000023  R0000179   -5075.        R0000180   -5075.     
    C0000023  R0000181   -5075.        R0000182   -5075.     
    C0000023  R0000183   -5075.        R0000184   -5075.     
    C0000023  R0000185   -5075.        R0000186   -5075.     
    C0000023  R0000187   -5075.        R0000188   -5075.     
    C0000023  R0000189   -5075.        R0000190   -5075.     
    C0000023  R0000191   -5075.        R0000192   -5075.     
    C0000024  OBJROW    59.            R0000007  1.          
    C0000024  R0000015  1.             R0000038  1.          
    C0000024  R0000192  1.          
    C0000025  OBJROW    79.            R0000007  1.          
    C0000025  R0000015  1.             R0000037  1.          
    C0000025  R0000191  1.          
    C0000026  OBJROW    39.            R0000007  1.          
    C0000026  R0000015  1.             R0000036  1.          
    C0000026  R0000190  1.          
    C0000027  OBJROW    59.            R0000007  1.          
    C0000027  R0000015  1.             R0000035  1.          
    C0000027  R0000189  1.          
    C0000028  OBJROW    9.             R0000007  1.          
    C0000028  R0000015  1.             R0000034  1.          
    C0000028  R0000188  1.          
    C0000029  OBJROW    59.            R0000007  1.          
    C0000029  R0000015  1.             R0000033  1.          
    C0000029  R0000187  1.          
    C0000030  OBJROW    59.            R0000007  1.          
    C0000030  R0000015  1.             R0000032  1.          
    C0000030  R0000186  1.          
    C0000031  OBJROW    24.            R0000007  1.          
    C0000031  R0000015  1.             R0000031  1.          
    C0000031  R0000185  1.          
    C0000032  OBJROW    69.            R0000007  1.          
    C0000032  R0000015  1.             R0000030  1.          
    C0000032  R0000184  1.          
    C0000033  OBJROW    54.            R0000007  1.          
    C0000033  R0000015  1.             R0000029  1.          
    C0000033  R0000183  1.          
    C0000034  OBJROW    39.            R0000007  1.          
    C0000034  R0000015  1.             R0000028  1.          
    C0000034  R0000182  1.          
    C0000035  OBJROW    74.            R0000007  1.          
    C0000035  R0000015  1.             R0000027  1.          
    C0000035  R0000181  1.          
    C0000036  OBJROW    74.            R0000007  1.          
    C0000036  R0000015  1.             R0000026  1.          
    C0000036  R0000180  1.          
    C0000037  OBJROW    64.            R0000007  1.          
    C0000037  R0000015  1.             R0000025  1.          
    C0000037  R0000179  1.          
    C0000038  OBJROW    49.            R0000007  1.          
    C0000038  R0000015  1.             R0000024  1.          
    C0000038  R0000178  1.          
    C0000039  OBJROW    59.            R0000007  1.          
    C0000039  R0000015  1.             R0000023  1.          
    C0000039  R0000177  1.          
    C0000040  OBJROW    59.            R0000007  1.          
    C0000040  R0000015  1.             R0000022  1.          
    C0000040  R0000176  1.          
    C0000041  OBJROW    64.            R0000007  1.          
    C0000041  R0000015  1.             R0000021  1.          
    C0000041  R0000175  1.          
    C0000042  OBJROW    64.            R0000007  1.          
    C0000042  R0000015  1.             R0000020  1.          
    C0000042  R0000174  1.          
    C0000043  OBJROW    44.            R0000007  1.          
    C0000043  R0000015  1.             R0000019  1.          
    C0000043  R0000173  1.          
    C0000044  OBJROW    59.            R0000007  1.          
    C0000044  R0000015  1.             R0000018  1.          
    C0000044  R0000172  1.          
    C0000045  OBJROW    64.            R0000007  1.          
    C0000045  R0000015  1.             R0000017  1.          
    C0000045  R0000171  1.          
    C0000046  OBJROW    3000.          R0000006   -550.      
    C0000046  R0000149   -5075.        R0000150   -5075.     
    C0000046  R0000151   -5075.        R0000152   -5075.     
    C0000046  R0000153   -5075.        R0000154   -5075.     
    C0000046  R0000155   -5075.        R0000156   -5075.     
    C0000046  R0000157   -5075.        R0000158   -5075.     
    C0000046  R0000159   -5075.        R0000160   -5075.     
    C0000046  R0000161   -5075.        R0000162   -5075.     
    C0000046  R0000163   -5075.        R0000164   -5075.     
    C0000046  R0000165   -5075.        R0000166   -5075.     
    C0000046  R0000167   -5075.        R0000168   -5075.     
    C0000046  R0000169   -5075.        R0000170   -5075.     
    C0000047  OBJROW    28.            R0000006  1.          
    C0000047  R0000014  1.             R0000038  1.          
    C0000047  R0000170  1.          
    C0000048  OBJROW    63.            R0000006  1.          
    C0000048  R0000014  1.             R0000037  1.          
    C0000048  R0000169  1.          
    C0000049  OBJROW    38.            R0000006  1.          
    C0000049  R0000014  1.             R0000036  1.          
    C0000049  R0000168  1.          
    C0000050  OBJROW    48.            R0000006  1.          
    C0000050  R0000014  1.             R0000035  1.          
    C0000050  R0000167  1.          
    C0000051  OBJROW    43.            R0000006  1.          
    C0000051  R0000014  1.             R0000034  1.          
    C0000051  R0000166  1.          
    C0000052  OBJROW    23.            R0000006  1.          
    C0000052  R0000014  1.             R0000033  1.          
    C0000052  R0000165  1.          
    C0000053  OBJROW    48.            R0000006  1.          
    C0000053  R0000014  1.             R0000032  1.          
    C0000053  R0000164  1.          
    C0000054  OBJROW    38.            R0000006  1.          
    C0000054  R0000014  1.             R0000031  1.          
    C0000054  R0000163  1.          
    C0000055  OBJROW    58.            R0000006  1.          
    C0000055  R0000014  1.             R0000030  1.          
    C0000055  R0000162  1.          
    C0000056  OBJROW    33.            R0000006  1.          
    C0000056  R0000014  1.             R0000029  1.          
    C0000056  R0000161  1.          
    C0000057  OBJROW    53.            R0000006  1.          
    C0000057  R0000014  1.             R0000028  1.          
    C0000057  R0000160  1.          
    C0000058  OBJROW    53.            R0000006  1.          
    C0000058  R0000014  1.             R0000027  1.          
    C0000058  R0000159  1.          
    C0000059  OBJROW    63.            R0000006  1.          
    C0000059  R0000014  1.             R0000026  1.          
    C0000059  R0000158  1.          
    C0000060  OBJROW    48.            R0000006  1.          
    C0000060  R0000014  1.             R0000025  1.          
    C0000060  R0000157  1.          
    C0000061  OBJROW    28.            R0000006  1.          
    C0000061  R0000014  1.             R0000024  1.          
    C0000061  R0000156  1.          
    C0000062  OBJROW    43.            R0000006  1.          
    C0000062  R0000014  1.             R0000023  1.          
    C0000062  R0000155  1.          
    C0000063  OBJROW    73.            R0000006  1.          
    C0000063  R0000014  1.             R0000022  1.          
    C0000063  R0000154  1.          
    C0000064  OBJROW    48.            R0000006  1.          
    C0000064  R0000014  1.             R0000021  1.          
    C0000064  R0000153  1.          
    C0000065  OBJROW    53.            R0000006  1.          
    C0000065  R0000014  1.             R0000020  1.          
    C0000065  R0000152  1.          
    C0000066  OBJROW    63.            R0000006  1.          
    C0000066  R0000014  1.             R0000019  1.          
    C0000066  R0000151  1.          
    C0000067  OBJROW    53.            R0000006  1.          
    C0000067  R0000014  1.             R0000018  1.          
    C0000067  R0000150  1.          
    C0000068  OBJROW    68.            R0000006  1.          
    C0000068  R0000014  1.             R0000017  1.          
    C0000068  R0000149  1.          
    C0000069  OBJROW    3500.          R0000005   -950.      
    C0000069  R0000127   -5075.        R0000128   -5075.     
    C0000069  R0000129   -5075.        R0000130   -5075.     
    C0000069  R0000131   -5075.        R0000132   -5075.     
    C0000069  R0000133   -5075.        R0000134   -5075.     
    C0000069  R0000135   -5075.        R0000136   -5075.     
    C0000069  R0000137   -5075.        R0000138   -5075.     
    C0000069  R0000139   -5075.        R0000140   -5075.     
    C0000069  R0000141   -5075.        R0000142   -5075.     
    C0000069  R0000143   -5075.        R0000144   -5075.     
    C0000069  R0000145   -5075.        R0000146   -5075.     
    C0000069  R0000147   -5075.        R0000148   -5075.     
    C0000070  OBJROW    49.            R0000005  1.          
    C0000070  R0000013  1.             R0000038  1.          
    C0000070  R0000148  1.          
    C0000071  OBJROW    19.            R0000005  1.          
    C0000071  R0000013  1.             R0000037  1.          
    C0000071  R0000147  1.          
    C0000072  OBJROW    44.            R0000005  1.          
    C0000072  R0000013  1.             R0000036  1.          
    C0000072  R0000146  1.          
    C0000073  OBJROW    84.            R0000005  1.          
    C0000073  R0000013  1.             R0000035  1.          
    C0000073  R0000145  1.          
    C0000074  OBJROW    79.            R0000005  1.          
    C0000074  R0000013  1.             R0000034  1.          
    C0000074  R0000144  1.          
    C0000075  OBJROW    54.            R0000005  1.          
    C0000075  R0000013  1.             R0000033  1.          
    C0000075  R0000143  1.          
    C0000076  OBJROW    29.            R0000005  1.          
    C0000076  R0000013  1.             R0000032  1.          
    C0000076  R0000142  1.          
    C0000077  OBJROW    64.            R0000005  1.          
    C0000077  R0000013  1.             R0000031  1.          
    C0000077  R0000141  1.          
    C0000078  OBJROW    64.            R0000005  1.          
    C0000078  R0000013  1.             R0000030  1.          
    C0000078  R0000140  1.          
    C0000079  OBJROW    44.            R0000005  1.          
    C0000079  R0000013  1.             R0000029  1.          
    C0000079  R0000139  1.          
    C0000080  OBJROW    79.            R0000005  1.          
    C0000080  R0000013  1.             R0000028  1.          
    C0000080  R0000138  1.          
    C0000081  OBJROW    14.            R0000005  1.          
    C0000081  R0000013  1.             R0000027  1.          
    C0000081  R0000137  1.          
    C0000082  OBJROW    44.            R0000005  1.          
    C0000082  R0000013  1.             R0000026  1.          
    C0000082  R0000136  1.          
    C0000083  OBJROW    49.            R0000005  1.          
    C0000083  R0000013  1.             R0000025  1.          
    C0000083  R0000135  1.          
    C0000084  OBJROW    59.            R0000005  1.          
    C0000084  R0000013  1.             R0000024  1.          
    C0000084  R0000134  1.          
    C0000085  OBJROW    39.            R0000005  1.          
    C0000085  R0000013  1.             R0000023  1.          
    C0000085  R0000133  1.          
    C0000086  OBJROW    84.            R0000005  1.          
    C0000086  R0000013  1.             R0000022  1.          
    C0000086  R0000132  1.          
    C0000087  OBJROW    44.            R0000005  1.          
    C0000087  R0000013  1.             R0000021  1.          
    C0000087  R0000131  1.          
    C0000088  OBJROW    19.            R0000005  1.          
    C0000088  R0000013  1.             R0000020  1.          
    C0000088  R0000130  1.          
    C0000089  OBJROW    89.            R0000005  1.          
    C0000089  R0000013  1.             R0000019  1.          
    C0000089  R0000129  1.          
    C0000090  OBJROW    69.            R0000005  1.          
    C0000090  R0000013  1.             R0000018  1.          
    C0000090  R0000128  1.          
    C0000091  OBJROW    69.            R0000005  1.          
    C0000091  R0000013  1.             R0000017  1.          
    C0000091  R0000127  1.          
    C0000092  OBJROW    1800.          R0000004   -700.      
    C0000092  R0000105   -5075.        R0000106   -5075.     
    C0000092  R0000107   -5075.        R0000108   -5075.     
    C0000092  R0000109   -5075.        R0000110   -5075.     
    C0000092  R0000111   -5075.        R0000112   -5075.     
    C0000092  R0000113   -5075.        R0000114   -5075.     
    C0000092  R0000115   -5075.        R0000116   -5075.     
    C0000092  R0000117   -5075.        R0000118   -5075.     
    C0000092  R0000119   -5075.        R0000120   -5075.     
    C0000092  R0000121   -5075.        R0000122   -5075.     
    C0000092  R0000123   -5075.        R0000124   -5075.     
    C0000092  R0000125   -5075.        R0000126   -5075.     
    C0000093  OBJROW    50.            R0000004  1.          
    C0000093  R0000012  1.             R0000038  1.          
    C0000093  R0000126  1.          
    C0000094  OBJROW    30.            R0000004  1.          
    C0000094  R0000012  1.             R0000037  1.          
    C0000094  R0000125  1.          
    C0000095  OBJROW    40.            R0000004  1.          
    C0000095  R0000012  1.             R0000036  1.          
    C0000095  R0000124  1.          
    C0000096  OBJROW    75.            R0000004  1.          
    C0000096  R0000012  1.             R0000035  1.          
    C0000096  R0000123  1.          
    C0000097  OBJROW    75.            R0000004  1.          
    C0000097  R0000012  1.             R0000034  1.          
    C0000097  R0000122  1.          
    C0000098  OBJROW    60.            R0000004  1.          
    C0000098  R0000012  1.             R0000033  1.          
    C0000098  R0000121  1.          
    C0000099  OBJROW    25.            R0000004  1.          
    C0000099  R0000012  1.             R0000032  1.          
    C0000099  R0000120  1.          
    C0000100  OBJROW    55.            R0000004  1.          
    C0000100  R0000012  1.             R0000031  1.          
    C0000100  R0000119  1.          
    C0000101  OBJROW    40.            R0000004  1.          
    C0000101  R0000012  1.             R0000030  1.          
    C0000101  R0000118  1.          
    C0000102  OBJROW    55.            R0000004  1.          
    C0000102  R0000012  1.             R0000029  1.          
    C0000102  R0000117  1.          
    C0000103  OBJROW    60.            R0000004  1.          
    C0000103  R0000012  1.             R0000028  1.          
    C0000103  R0000116  1.          
    C0000104  OBJROW    40.            R0000004  1.          
    C0000104  R0000012  1.             R0000027  1.          
    C0000104  R0000115  1.          
    C0000105  OBJROW    10.            R0000004  1.          
    C0000105  R0000012  1.             R0000026  1.          
    C0000105  R0000114  1.          
    C0000106  OBJROW    35.            R0000004  1.          
    C0000106  R0000012  1.             R0000025  1.          
    C0000106  R0000113  1.          
    C0000107  OBJROW    70.            R0000004  1.          
    C0000107  R0000012  1.             R0000024  1.          
    C0000107  R0000112  1.          
    C0000108  OBJROW    60.            R0000004  1.          
    C0000108  R0000012  1.             R0000023  1.          
    C0000108  R0000111  1.          
    C0000109  OBJROW    55.            R0000004  1.          
    C0000109  R0000012  1.             R0000022  1.          
    C0000109  R0000110  1.          
    C0000110  OBJROW    25.            R0000004  1.          
    C0000110  R0000012  1.             R0000021  1.          
    C0000110  R0000109  1.          
    C0000111  OBJROW    35.            R0000004  1.          
    C0000111  R0000012  1.             R0000020  1.          
    C0000111  R0000108  1.          
    C0000112  OBJROW    65.            R0000004  1.          
    C0000112  R0000012  1.             R0000019  1.          
    C0000112  R0000107  1.          
    C0000113  OBJROW    50.            R0000004  1.          
    C0000113  R0000012  1.             R0000018  1.          
    C0000113  R0000106  1.          
    C0000114  OBJROW    35.            R0000004  1.          
    C0000114  R0000012  1.             R0000017  1.          
    C0000114  R0000105  1.          
    C0000115  OBJROW    2900.          R0000003   -700.      
    C0000115  R0000083   -5075.        R0000084   -5075.     
    C0000115  R0000085   -5075.        R0000086   -5075.     
    C0000115  R0000087   -5075.        R0000088   -5075.     
    C0000115  R0000089   -5075.        R0000090   -5075.     
    C0000115  R0000091   -5075.        R0000092   -5075.     
    C0000115  R0000093   -5075.        R0000094   -5075.     
    C0000115  R0000095   -5075.        R0000096   -5075.     
    C0000115  R0000097   -5075.        R0000098   -5075.     
    C0000115  R0000099   -5075.        R0000100   -5075.     
    C0000115  R0000101   -5075.        R0000102   -5075.     
    C0000115  R0000103   -5075.        R0000104   -5075.     
    C0000116  OBJROW    28.            R0000003  1.          
    C0000116  R0000011  1.             R0000038  1.          
    C0000116  R0000104  1.          
    C0000117  OBJROW    63.            R0000003  1.          
    C0000117  R0000011  1.             R0000037  1.          
    C0000117  R0000103  1.          
    C0000118  OBJROW    38.            R0000003  1.          
    C0000118  R0000011  1.             R0000036  1.          
    C0000118  R0000102  1.          
    C0000119  OBJROW    58.            R0000003  1.          
    C0000119  R0000011  1.             R0000035  1.          
    C0000119  R0000101  1.          
    C0000120  OBJROW    43.            R0000003  1.          
    C0000120  R0000011  1.             R0000034  1.          
    C0000120  R0000100  1.          
    C0000121  OBJROW    18.            R0000003  1.          
    C0000121  R0000011  1.             R0000033  1.          
    C0000121  R0000099  1.          
    C0000122  OBJROW    53.            R0000003  1.          
    C0000122  R0000011  1.             R0000032  1.          
    C0000122  R0000098  1.          
    C0000123  OBJROW    38.            R0000003  1.          
    C0000123  R0000011  1.             R0000031  1.          
    C0000123  R0000097  1.          
    C0000124  OBJROW    68.            R0000003  1.          
    C0000124  R0000011  1.             R0000030  1.          
    C0000124  R0000096  1.          
    C0000125  OBJROW    23.            R0000003  1.          
    C0000125  R0000011  1.             R0000029  1.          
    C0000125  R0000095  1.          
    C0000126  OBJROW    63.            R0000003  1.          
    C0000126  R0000011  1.             R0000028  1.          
    C0000126  R0000094  1.          
    C0000127  OBJROW    58.            R0000003  1.          
    C0000127  R0000011  1.             R0000027  1.          
    C0000127  R0000093  1.          
    C0000128  OBJROW    73.            R0000003  1.          
    C0000128  R0000011  1.             R0000026  1.          
    C0000128  R0000092  1.          
    C0000129  OBJROW    48.            R0000003  1.          
    C0000129  R0000011  1.             R0000025  1.          
    C0000129  R0000091  1.          
    C0000130  OBJROW    13.            R0000003  1.          
    C0000130  R0000011  1.             R0000024  1.          
    C0000130  R0000090  1.          
    C0000131  OBJROW    28.            R0000003  1.          
    C0000131  R0000011  1.             R0000023  1.          
    C0000131  R0000089  1.          
    C0000132  OBJROW    83.            R0000003  1.          
    C0000132  R0000011  1.             R0000022  1.          
    C0000132  R0000088  1.          
    C0000133  OBJROW    58.            R0000003  1.          
    C0000133  R0000011  1.             R0000021  1.          
    C0000133  R0000087  1.          
    C0000134  OBJROW    48.            R0000003  1.          
    C0000134  R0000011  1.             R0000020  1.          
    C0000134  R0000086  1.          
    C0000135  OBJROW    73.            R0000003  1.          
    C0000135  R0000011  1.             R0000019  1.          
    C0000135  R0000085  1.          
    C0000136  OBJROW    53.            R0000003  1.          
    C0000136  R0000011  1.             R0000018  1.          
    C0000136  R0000084  1.          
    C0000137  OBJROW    78.            R0000003  1.          
    C0000137  R0000011  1.             R0000017  1.          
    C0000137  R0000083  1.          
    C0000138  OBJROW    3300.          R0000002   -450.      
    C0000138  R0000061   -5075.        R0000062   -5075.     
    C0000138  R0000063   -5075.        R0000064   -5075.     
    C0000138  R0000065   -5075.        R0000066   -5075.     
    C0000138  R0000067   -5075.        R0000068   -5075.     
    C0000138  R0000069   -5075.        R0000070   -5075.     
    C0000138  R0000071   -5075.        R0000072   -5075.     
    C0000138  R0000073   -5075.        R0000074   -5075.     
    C0000138  R0000075   -5075.        R0000076   -5075.     
    C0000138  R0000077   -5075.        R0000078   -5075.     
    C0000138  R0000079   -5075.        R0000080   -5075.     
    C0000138  R0000081   -5075.        R0000082   -5075.     
    C0000139  OBJROW    33.            R0000002  1.          
    C0000139  R0000010  1.             R0000038  1.          
    C0000139  R0000082  1.          
    C0000140  OBJROW    48.            R0000002  1.          
    C0000140  R0000010  1.             R0000037  1.          
    C0000140  R0000081  1.          
    C0000141  OBJROW    38.            R0000002  1.          
    C0000141  R0000010  1.             R0000036  1.          
    C0000141  R0000080  1.          
    C0000142  OBJROW    73.            R0000002  1.          
    C0000142  R0000010  1.             R0000035  1.          
    C0000142  R0000079  1.          
    C0000143  OBJROW    63.            R0000002  1.          
    C0000143  R0000010  1.             R0000034  1.          
    C0000143  R0000078  1.          
    C0000144  OBJROW    33.            R0000002  1.          
    C0000144  R0000010  1.             R0000033  1.          
    C0000144  R0000077  1.          
    C0000145  OBJROW    43.            R0000002  1.          
    C0000145  R0000010  1.             R0000032  1.          
    C0000145  R0000076  1.          
    C0000146  OBJROW    48.            R0000002  1.          
    C0000146  R0000010  1.             R0000031  1.          
    C0000146  R0000075  1.          
    C0000147  OBJROW    68.            R0000002  1.          
    C0000147  R0000010  1.             R0000030  1.          
    C0000147  R0000074  1.          
    C0000148  OBJROW    23.            R0000002  1.          
    C0000148  R0000010  1.             R0000029  1.          
    C0000148  R0000073  1.          
    C0000149  OBJROW    73.            R0000002  1.          
    C0000149  R0000010  1.             R0000028  1.          
    C0000149  R0000072  1.          
    C0000150  OBJROW    38.            R0000002  1.          
    C0000150  R0000010  1.             R0000027  1.          
    C0000150  R0000071  1.          
    C0000151  OBJROW    63.            R0000002  1.          
    C0000151  R0000010  1.             R0000026  1.          
    C0000151  R0000070  1.          
    C0000152  OBJROW    48.            R0000002  1.          
    C0000152  R0000010  1.             R0000025  1.          
    C0000152  R0000069  1.          
    C0000153  OBJROW    28.            R0000002  1.          
    C0000153  R0000010  1.             R0000024  1.          
    C0000153  R0000068  1.          
    C0000154  OBJROW    13.            R0000002  1.          
    C0000154  R0000010  1.             R0000023  1.          
    C0000154  R0000067  1.          
    C0000155  OBJROW    88.            R0000002  1.          
    C0000155  R0000010  1.             R0000022  1.          
    C0000155  R0000066  1.          
    C0000156  OBJROW    53.            R0000002  1.          
    C0000156  R0000010  1.             R0000021  1.          
    C0000156  R0000065  1.          
    C0000157  OBJROW    28.            R0000002  1.          
    C0000157  R0000010  1.             R0000020  1.          
    C0000157  R0000064  1.          
    C0000158  OBJROW    83.            R0000002  1.          
    C0000158  R0000010  1.             R0000019  1.          
    C0000158  R0000063  1.          
    C0000159  OBJROW    63.            R0000002  1.          
    C0000159  R0000010  1.             R0000018  1.          
    C0000159  R0000062  1.          
    C0000160  OBJROW    78.            R0000002  1.          
    C0000160  R0000010  1.             R0000017  1.          
    C0000160  R0000061  1.          
    C0000161  OBJROW    2700.          R0000001   -650.      
    C0000161  R0000039   -5075.        R0000040   -5075.     
    C0000161  R0000041   -5075.        R0000042   -5075.     
    C0000161  R0000043   -5075.        R0000044   -5075.     
    C0000161  R0000045   -5075.        R0000046   -5075.     
    C0000161  R0000047   -5075.        R0000048   -5075.     
    C0000161  R0000049   -5075.        R0000050   -5075.     
    C0000161  R0000051   -5075.        R0000052   -5075.     
    C0000161  R0000053   -5075.        R0000054   -5075.     
    C0000161  R0000055   -5075.        R0000056   -5075.     
    C0000161  R0000057   -5075.        R0000058   -5075.     
    C0000161  R0000059   -5075.        R0000060   -5075.     
    C0000162  OBJROW    56.            R0000001  1.          
    C0000162  R0000009  1.             R0000038  1.          
    C0000162  R0000060  1.          
    C0000163  OBJROW    86.            R0000001  1.          
    C0000163  R0000009  1.             R0000037  1.          
    C0000163  R0000059  1.          
    C0000164  OBJROW    51.            R0000001  1.          
    C0000164  R0000009  1.             R0000036  1.          
    C0000164  R0000058  1.          
    C0000165  OBJROW    26.            R0000001  1.          
    C0000165  R0000009  1.             R0000035  1.          
    C0000165  R0000057  1.          
    C0000166  OBJROW    46.            R0000001  1.          
    C0000166  R0000009  1.             R0000034  1.          
    C0000166  R0000056  1.          
    C0000167  OBJROW    61.            R0000001  1.          
    C0000167  R0000009  1.             R0000033  1.          
    C0000167  R0000055  1.          
    C0000168  OBJROW    66.            R0000001  1.          
    C0000168  R0000009  1.             R0000032  1.          
    C0000168  R0000054  1.          
    C0000169  OBJROW    41.            R0000001  1.          
    C0000169  R0000009  1.             R0000031  1.          
    C0000169  R0000053  1.          
    C0000170  OBJROW    36.            R0000001  1.          
    C0000170  R0000009  1.             R0000030  1.          
    C0000170  R0000052  1.          
    C0000171  OBJROW    71.            R0000001  1.          
    C0000171  R0000009  1.             R0000029  1.          
    C0000171  R0000051  1.          
    C0000172  OBJROW    16.            R0000001  1.          
    C0000172  R0000009  1.             R0000028  1.          
    C0000172  R0000050  1.          
    C0000173  OBJROW    86.            R0000001  1.          
    C0000173  R0000009  1.             R0000027  1.          
    C0000173  R0000049  1.          
    C0000174  OBJROW    66.            R0000001  1.          
    C0000174  R0000009  1.             R0000026  1.          
    C0000174  R0000048  1.          
    C0000175  OBJROW    26.            R0000001  1.          
    C0000175  R0000009  1.             R0000025  1.          
    C0000175  R0000047  1.          
    C0000176  OBJROW    71.            R0000001  1.          
    C0000176  R0000009  1.             R0000024  1.          
    C0000176  R0000046  1.          
    C0000177  OBJROW    81.            R0000001  1.          
    C0000177  R0000009  1.             R0000023  1.          
    C0000177  R0000045  1.          
    C0000178  OBJROW    26.            R0000001  1.          
    C0000178  R0000009  1.             R0000022  1.          
    C0000178  R0000044  1.          
    C0000179  OBJROW    51.            R0000001  1.          
    C0000179  R0000009  1.             R0000021  1.          
    C0000179  R0000043  1.          
    C0000180  OBJROW    76.            R0000001  1.          
    C0000180  R0000009  1.             R0000020  1.          
    C0000180  R0000042  1.          
    C0000181  OBJROW    11.            R0000001  1.          
    C0000181  R0000009  1.             R0000019  1.          
    C0000181  R0000041  1.          
    C0000182  OBJROW    26.            R0000001  1.          
    C0000182  R0000009  1.             R0000018  1.          
    C0000182  R0000040  1.          
    C0000183  OBJROW    46.            R0000001  1.          
    C0000183  R0000009  1.             R0000017  1.          
    C0000183  R0000039  1.          
    C0000184  OBJROW    7.             R0000008  1.          
    C0000185  OBJROW    4.             R0000007  1.          
    C0000186  OBJROW    8.             R0000006  1.          
    C0000187  OBJROW    9.             R0000005  1.          
    C0000188  OBJROW    5.             R0000004  1.          
    C0000189  OBJROW    8.             R0000003  1.          
    C0000190  OBJROW    8.             R0000002  1.          
    C0000191  OBJROW    6.             R0000001  1.          
RHS
    RHS       R0000009  1750.          R0000010  1750.       
    RHS       R0000011  1000.          R0000012  1500.       
    RHS       R0000013  2000.          R0000014  1500.       
    RHS       R0000015  1000.          R0000016  1500.       
    RHS       R0000017  240.           R0000018  125.        
    RHS       R0000019  275.           R0000020  140.        
    RHS       R0000021  100.           R0000022  160.        
    RHS       R0000023  190.           R0000024  240.        
    RHS       R0000025  340.           R0000026  260.        
    RHS       R0000027  400.           R0000028  160.        
    RHS       R0000029  320.           R0000030  210.        
    RHS       R0000031  260.           R0000032  310.        
    RHS       R0000033  340.           R0000034  300.        
    RHS       R0000035  135.           R0000036  200.        
    RHS       R0000037  150.           R0000038  220.        
BOUNDS
 BV BOUND     C0000000  1.          
 BV BOUND     C0000023  1.          
 BV BOUND     C0000046  1.          
 BV BOUND     C0000069  1.          
 BV BOUND     C0000092  1.          
 BV BOUND     C0000115  1.          
 BV BOUND     C0000138  1.          
 BV BOUND     C0000161  1.          
ENDATA
